20180521 200 0 0 0
20170511 250 0 0 0
20160620 250 0 0 0
20150603 100 0 0 0
20140521 200 0 0 0
20130710 150 0 0 0
20120702 100 0 0 0
20100422 100 0 0 0
20090521 100 0 0 0
20080522 100 0 0 0
20070522 20 9800 0 0
20060809 200 0 0 0
20050527 200 0 0 0
20040729 100 0 0 0
20020527 125 0 0 0
20010601 125 0 0 0
20001110 0 3000 0 0
19991110 125 0 0 0
